p ocr 16 16 80
1 28
1 30
1 32
2 19
3 19
4 25
4 27
4 31
5 21
5 26
5 30
6 17
6 18
6 22
6 23
6 29
7 20
7 24
7 30
8 21
8 24
8 27
9 20
9 25
9 32
10 20
10 26
10 27
11 19
12 24
12 25
12 28
13 19
14 19
15 21
15 28
15 31
16 26
16 31
16 32
5 17
7 17
8 17
10 17
4 18
9 18
10 18
16 18
3 20
13 20
11 21
14 21
1 22
7 22
9 22
12 22
4 23
8 23
12 23
15 23
3 24
11 24
2 25
3 25
13 26
14 26
3 27
14 27
2 28
11 28
1 29
5 29
15 29
16 29
11 30
13 30
2 31
14 31
2 32
13 32